p tdp 72 71
32 26
20 72
55 15
18 55
61 21
11 35
23 49
10 25
72 5
36 18
59 15
47 66
44 14
68 56
31 16
38 72
17 60
68 60
50 17
7 71
12 53
37 48
33 39
10 34
59 70
65 3
9 49
33 23
52 58
20 40
62 30
1 37
64 69
46 56
22 45
45 27
31 4
61 41
63 28
64 44
31 35
19 58
13 7
16 6
56 10
47 2
51 42
29 65
57 59
58 56
71 54
67 35
8 63
47 42
24 12
51 7
57 62
26 48
41 69
72 45
24 43
4 39
22 37
54 4
65 24
4 5
47 15
43 46
8 6
59 44
18 60
